0
Node Left Objective IInf Best_Integer Best_Bound ItCnt Gap
0+ 0 nan nan 136.4723 0.0000 nan 100.00%
0+ 0 nan nan 99.3310 0.0000 nan 100.00%
0 0 24.4170 14 99.3310 24.4170 133 75.42%
0+ 0 nan nan 91.3252 24.4170 nan 73.26%
0 0 32.0761 15 91.3252 Disjcuts:13 182 64.88%
0+ 0 nan nan 77.3123 32.0761 nan 58.51%
0 0 35.5974 15 77.3123 Cuts:11 209 53.96%
0 0 35.7143 16 77.3123 Cuts:11 215 53.81%
0 0 36.1510 15 77.3123 Cuts:6 237 53.24%
0 0 38.2254 15 77.3123 Cuts:17 274 50.56%
0+ 0 nan nan 57.4176 38.2254 nan 33.43%
0 0 38.3462 16 57.4176 Cuts:4 283 33.22%
0 0 38.4665 15 57.4176 Cuts:7 292 33.01%
0 0 38.5671 16 57.4176 Cuts:5 296 32.83%
0 0 38.5914 15 57.4176 MIRcuts:4 304 32.79%
0 0 38.6206 16 57.4176 Cuts:8 312 32.74%
0 0 38.6500 16 57.4176 MIRcuts:3 319 32.69%
0 2 38.6500 16 57.4176 38.6917 319 32.61%
CPXPARAM_MIP_Cuts_Disjunctive-MIRCut:Disjunctive 6
CPXPARAM_MIP_Cuts_Disjunctive-MIRCut:MIRCut 11
1
Node Left Objective IInf Best_Integer Best_Bound ItCnt Gap
0+ 0 nan nan 136.4723 0.0000 nan 100.00%
0+ 0 nan nan 99.3310 0.0000 nan 100.00%
0+ 0 nan nan 92.6197 0.0000 nan 100.00%
0 0 0.6675 26 92.6197 0.6675 123 99.28%
0 0 4.3402 23 92.6197 Disjcuts:20 158 95.31%
0+ 0 nan nan 11.7670 4.3402 nan 63.12%
0 0 5.3438 21 11.7670 Cuts:18 190 54.59%
0 0 5.4138 22 11.7670 Cuts:2 197 53.99%
0 0 5.4562 21 11.7670 Disjcuts:1 198 53.63%
0 0 5.4613 22 11.7670 Disjcuts:1 204 53.59%
0 2 6.3015 9 11.7670 6.3335 204 46.18%
CPXPARAM_MIP_Cuts_Disjunctive-MIRCut:Disjunctive 0
CPXPARAM_MIP_Cuts_Disjunctive-MIRCut:MIRCut 16
2
Node Left Objective IInf Best_Integer Best_Bound ItCnt Gap
0+ 0 nan nan 136.4723 0.0000 nan 100.00%
0+ 0 nan nan 72.0230 0.0000 nan 100.00%
0 0 22.6334 9 72.0230 22.6334 129 68.57%
0 0 28.6727 10 72.0230 Disjcuts:8 147 60.19%
0+ 0 nan nan 66.7968 28.6727 nan 57.07%
0 0 29.0875 9 66.7968 Cuts:4 157 56.45%
0+ 0 nan nan 55.7527 29.0875 nan 47.83%
0 0 29.8047 12 55.7527 MIRcuts:4 166 46.54%
0 0 30.2968 11 55.7527 Cuts:4 175 45.66%
0 0 30.6617 11 55.7527 Cuts:5 182 45.00%
0 0 30.9001 12 55.7527 MIRcuts:4 193 44.58%
0 0 30.9247 11 55.7527 MIRcuts:1 201 44.53%
0 0 31.5312 11 55.7527 Cuts:4 212 43.44%
0+ 0 nan nan 47.5261 31.5312 nan 33.65%
0 0 31.5636 12 47.5261 MIRcuts:2 214 33.59%
0 0 31.5758 11 47.5261 MIRcuts:2 220 33.56%
0 0 31.5805 10 47.5261 MIRcuts:1 221 33.55%
0 0 31.5805 11 47.5261 MIRcuts:1 222 33.55%
0 2 31.5805 11 47.5261 31.6694 222 33.36%
CPXPARAM_MIP_Cuts_Disjunctive-MIRCut:Disjunctive 8
CPXPARAM_MIP_Cuts_Disjunctive-MIRCut:MIRCut 4
3
Node Left Objective IInf Best_Integer Best_Bound ItCnt Gap
0+ 0 nan nan 136.4723 0.0000 nan 100.00%
0+ 0 nan nan 78.8830 0.0000 nan 100.00%
0 0 0.3026 20 78.8830 0.3026 110 99.62%
0+ 0 nan nan 59.7230 0.3026 nan 99.49%
0 0 2.1640 17 59.7230 Disjcuts:14 136 96.38%
0+ 0 nan nan 23.8183 2.1640 nan 90.91%
0 0 2.7598 15 23.8183 Disjcuts:5 146 88.41%
0 0 2.7784 16 23.8183 Disjcuts:3 153 88.33%
0 0 2.8470 16 23.8183 Disjcuts:5 166 88.05%
0 0 3.5465 15 23.8183 Disjcuts:6 184 85.11%
0+ 0 nan nan 23.5166 3.5465 nan 84.92%
0 2 3.5465 15 23.5166 3.5720 184 84.81%
CPXPARAM_MIP_Cuts_Disjunctive-MIRCut:Disjunctive 0
CPXPARAM_MIP_Cuts_Disjunctive-MIRCut:MIRCut 9
4
Node Left Objective IInf Best_Integer Best_Bound ItCnt Gap
0+ 0 nan nan 115.1924 0.0000 nan 100.00%
0+ 0 nan nan 108.1598 0.0000 nan 100.00%
0+ 0 nan nan 102.3525 0.0000 nan 100.00%
0 0 23.6849 14 102.3525 23.6849 149 76.86%
0+ 0 nan nan 86.4233 23.6849 nan 72.59%
0 0 29.2087 15 86.4233 Disjcuts:14 176 66.20%
0+ 0 nan nan 69.0482 29.2087 nan 57.70%
0 0 29.2153 16 69.0482 Cuts:17 190 57.69%
0 0 29.2644 16 69.0482 Cuts:4 200 57.62%
0 0 29.2848 16 69.0482 Cuts:14 213 57.59%
0 0 29.9549 15 69.0482 Cuts:10 248 56.62%
0 0 30.2689 14 69.0482 Cuts:15 262 56.16%
0 0 30.3265 14 69.0482 MIRcuts:6 270 56.08%
0 0 30.3291 14 69.0482 MIRcuts:2 272 56.08%
0+ 0 nan nan 69.0261 30.3291 nan 56.06%
0+ 0 nan nan 62.7419 30.3291 nan 51.66%
0 2 30.3291 14 62.7419 30.4366 272 51.49%
CPXPARAM_MIP_Cuts_Disjunctive-MIRCut:Disjunctive 5
CPXPARAM_MIP_Cuts_Disjunctive-MIRCut:MIRCut 6
5
Node Left Objective IInf Best_Integer Best_Bound ItCnt Gap
0+ 0 nan nan 115.1924 0.0000 nan 100.00%
0+ 0 nan nan 108.1598 0.0000 nan 100.00%
0+ 0 nan nan 83.4389 0.0000 nan 100.00%
0 0 0.5012 24 83.4389 0.5012 125 99.40%
0+ 0 nan nan 52.2996 0.5012 nan 99.04%
0 0 5.5978 22 52.2996 Disjcuts:21 158 89.30%
0+ 0 nan nan 16.3715 5.5978 nan 65.81%
0 0 6.1544 21 16.3715 Disjcuts:8 178 62.41%
0 0 6.1749 22 16.3715 Cuts:4 188 62.28%
0 0 6.2921 22 16.3715 Cuts:5 203 61.57%
0 0 6.3112 22 16.3715 Disjcuts:6 212 61.45%
0 2 6.3112 22 16.3715 6.3393 212 61.28%
CPXPARAM_MIP_Cuts_Disjunctive-MIRCut:Disjunctive 0
CPXPARAM_MIP_Cuts_Disjunctive-MIRCut:MIRCut 12
6
Node Left Objective IInf Best_Integer Best_Bound ItCnt Gap
0+ 0 nan nan 115.1924 0.0000 nan 100.00%
0+ 0 nan nan 82.6615 0.0000 nan 100.00%
0 0 24.8139 9 82.6615 24.8139 129 69.98%
0+ 0 nan nan 71.8353 24.8139 nan 65.46%
0 0 27.8168 9 71.8353 Disjcuts:3 138 61.28%
0+ 0 nan nan 54.6460 27.8168 nan 49.10%
0 0 32.0175 13 54.6460 Cuts:9 174 41.41%
0 0 34.2362 12 54.6460 Cuts:9 200 37.35%
0+ 0 nan nan 53.5896 34.2362 nan 36.11%
0 0 34.3065 14 53.5896 MIRcuts:6 220 35.98%
0 0 34.3422 14 53.5896 MIRcuts:6 234 35.92%
0+ 0 nan nan 52.9485 34.3422 nan 35.14%
0 0 34.3964 13 52.9485 Cuts:5 243 35.04%
0 0 34.3981 13 52.9485 MIRcuts:3 248 35.03%
0 0 34.4305 14 52.9485 MIRcuts:2 254 34.97%
0 0 34.4574 15 52.9485 MIRcuts:2 257 34.92%
0 0 34.4850 15 52.9485 MIRcuts:2 260 34.87%
0 0 34.5934 14 52.9485 MIRcuts:1 274 34.67%
0 0 34.6416 13 52.9485 MIRcuts:4 284 34.57%
0 0 34.6893 14 52.9485 MIRcuts:8 293 34.48%
0 0 34.7948 14 52.9485 MIRcuts:7 303 34.29%
0 0 34.8263 14 52.9485 MIRcuts:3 308 34.23%
0 0 34.9440 15 52.9485 MIRcuts:4 317 34.00%
0 0 34.9631 15 52.9485 MIRcuts:2 321 33.97%
0 0 35.0439 14 52.9485 MIRcuts:1 327 33.82%
0 0 35.0804 15 52.9485 MIRcuts:7 333 33.75%
0 0 35.1151 13 52.9485 MIRcuts:2 340 33.68%
0 0 35.2931 13 52.9485 MIRcuts:5 350 33.34%
0 0 35.4253 13 52.9485 MIRcuts:10 364 33.09%
0 0 35.5897 14 52.9485 Cuts:3 373 32.78%
0 0 35.5897 15 52.9485 MIRcuts:2 375 32.78%
0 2 35.5897 15 52.9485 36.0450 375 31.92%
CPXPARAM_MIP_Cuts_Disjunctive-MIRCut:Disjunctive 10
CPXPARAM_MIP_Cuts_Disjunctive-MIRCut:MIRCut 4
7
Node Left Objective IInf Best_Integer Best_Bound ItCnt Gap
0+ 0 nan nan 115.1924 0.0000 nan 100.00%
0+ 0 nan nan 86.0575 0.0000 nan 100.00%
0 0 0.0036 22 86.0575 0.0036 119 100.00%
0+ 0 nan nan 43.5961 0.0036 nan 99.99%
0 0 3.4184 18 43.5961 Disjcuts:20 173 92.16%
0+ 0 nan nan 20.7737 3.4184 nan 83.54%
0+ 0 nan nan 19.8546 3.4184 nan 82.78%
0 2 3.4184 18 19.8546 3.9206 173 80.25%
CPXPARAM_MIP_Cuts_Disjunctive-MIRCut:Disjunctive 0
CPXPARAM_MIP_Cuts_Disjunctive-MIRCut:MIRCut 10
8
Node Left Objective IInf Best_Integer Best_Bound ItCnt Gap
0+ 0 nan nan 131.6037 0.0000 nan 100.00%
0+ 0 nan nan 112.2485 0.0000 nan 100.00%
0 0 45.7863 15 112.2485 45.7863 126 59.21%
0+ 0 nan nan 98.1321 45.7863 nan 53.34%
0 0 53.9738 17 98.1321 Disjcuts:13 147 45.00%
0+ 0 nan nan 97.5804 53.9738 nan 44.69%
0 0 55.7489 13 97.5804 Cuts:5 161 42.87%
0 0 56.2763 18 97.5804 Cuts:10 188 42.33%
0 0 56.4334 17 97.5804 Cuts:9 205 42.17%
0 0 56.4480 17 97.5804 Cuts:3 211 42.15%
0+ 0 nan nan 96.6565 56.4480 nan 41.60%
0 0 56.4496 17 96.6565 MIRcuts:3 215 41.60%
0+ 0 nan nan 73.2023 56.4496 nan 22.89%
0 2 56.4496 17 73.2023 56.4602 215 22.87%
CPXPARAM_MIP_Cuts_Disjunctive-MIRCut:Disjunctive 1
CPXPARAM_MIP_Cuts_Disjunctive-MIRCut:MIRCut 13
9
Node Left Objective IInf Best_Integer Best_Bound ItCnt Gap
0+ 0 nan nan 131.6037 0.0000 nan 100.00%
0+ 0 nan nan 111.7972 0.0000 nan 100.00%
0+ 0 nan nan 83.4511 0.0000 nan 100.00%
0 0 0.5228 27 83.4511 0.5228 117 99.37%
0+ 0 nan nan 66.1456 0.5228 nan 99.21%
0 0 4.7622 23 66.1456 Disjcuts:21 164 92.80%
0+ 0 nan nan 41.5206 4.7622 nan 88.53%
0 0 5.4232 23 41.5206 Cuts:13 185 86.94%
0 0 5.6333 22 41.5206 Cuts:3 194 86.43%
0 0 5.6696 22 41.5206 Cuts:6 202 86.35%
0 0 5.7020 23 41.5206 Cuts:5 209 86.27%
0+ 0 nan nan 31.6821 5.7020 nan 82.00%
0 0 5.7320 22 31.6821 MIRcuts:2 216 81.91%
0 0 5.7758 23 31.6821 MIRcuts:4 224 81.77%
0 0 5.7842 24 31.6821 MIRcuts:2 229 81.74%
0 0 5.8780 24 31.6821 MIRcuts:1 242 81.45%
0 0 5.9585 24 31.6821 MIRcuts:5 250 81.19%
0 0 6.0064 24 31.6821 MIRcuts:4 259 81.04%
0 0 6.1136 22 31.6821 MIRcuts:3 270 80.70%
0 0 6.1710 24 31.6821 Cuts:7 278 80.52%
0+ 0 nan nan 29.5217 6.1710 nan 79.10%
0 2 6.1710 24 29.5217 6.2418 278 78.86%
CPXPARAM_MIP_Cuts_Disjunctive-MIRCut:Disjunctive 11
CPXPARAM_MIP_Cuts_Disjunctive-MIRCut:MIRCut 9
10
Node Left Objective IInf Best_Integer Best_Bound ItCnt Gap
0+ 0 nan nan 131.6037 0.0000 nan 100.00%
0+ 0 nan nan 103.2308 0.0000 nan 100.00%
0 0 38.3907 9 103.2308 38.3907 132 62.81%
0+ 0 nan nan 95.7077 38.3907 nan 59.89%
0 0 47.2806 7 95.7077 Disjcuts:5 151 50.60%
0+ 0 nan nan 73.4270 47.2806 nan 35.61%
0 0 47.7497 7 73.4270 Disjcuts:4 159 34.97%
0 0 48.2524 10 73.4270 Cuts:4 174 34.29%
0 0 49.6074 6 73.4270 Disjcuts:4 185 32.44%
0+ 0 nan nan 72.9262 49.6074 nan 31.98%
0 0 49.6086 7 72.9262 Disjcuts:1 186 31.97%
0+ 0 nan nan 64.1513 49.6086 nan 22.67%
0 2 49.6086 7 64.1513 50.8015 186 20.81%
CPXPARAM_MIP_Cuts_Disjunctive-MIRCut:Disjunctive 0
CPXPARAM_MIP_Cuts_Disjunctive-MIRCut:MIRCut 7
11
Node Left Objective IInf Best_Integer Best_Bound ItCnt Gap
0+ 0 nan nan 131.6037 0.0000 nan 100.00%
0+ 0 nan nan 119.4045 0.0000 nan 100.00%
0 0 0.0384 21 119.4045 0.0384 109 99.97%
0+ 0 nan nan 53.3751 0.0384 nan 99.93%
0 0 4.3450 15 53.3751 Disjcuts:20 158 91.86%
0+ 0 nan nan 39.8657 4.3450 nan 89.10%
0 0 4.6594 16 39.8657 Disjcuts:4 184 88.31%
0+ 0 nan nan 34.9679 4.6594 nan 86.68%
0 0 4.6885 18 34.9679 Cuts:2 196 86.59%
0+ 0 nan nan 34.4775 4.6885 nan 86.40%
0 0 4.9314 16 34.4775 Cuts:7 219 85.70%
0+ 0 nan nan 32.6615 4.9314 nan 84.90%
0 0 5.6101 16 32.6615 Disjcuts:6 248 82.82%
0 2 5.6101 16 32.6615 5.6747 248 82.63%
CPXPARAM_MIP_Cuts_Disjunctive-MIRCut:Disjunctive 0
CPXPARAM_MIP_Cuts_Disjunctive-MIRCut:MIRCut 12
12
Node Left Objective IInf Best_Integer Best_Bound ItCnt Gap
0+ 0 nan nan 110.3567 0.0000 nan 100.00%
0+ 0 nan nan 96.8755 0.0000 nan 100.00%
0 0 29.3411 15 96.8755 29.3411 140 69.71%
0+ 0 nan nan 82.7988 29.3411 nan 64.56%
0 0 38.3192 15 82.7988 Cuts:35 186 53.72%
0+ 0 nan nan 81.6611 38.3192 nan 53.08%
0 0 38.7849 15 81.6611 Cuts:6 191 52.51%
0+ 0 nan nan 78.7782 38.7849 nan 50.77%
0 0 39.7498 15 78.7782 Cuts:9 208 49.54%
0+ 0 nan nan 61.0848 39.7498 nan 34.93%
0 0 39.9051 15 61.0848 Cuts:4 212 34.67%
0 0 40.0040 15 61.0848 Cuts:5 220 34.51%
0 0 40.0184 15 61.0848 MIRcuts:1 221 34.49%
0 2 40.0184 15 61.0848 40.4448 221 33.79%
CPXPARAM_MIP_Cuts_Disjunctive-MIRCut:Disjunctive 2
CPXPARAM_MIP_Cuts_Disjunctive-MIRCut:MIRCut 7
13
Node Left Objective IInf Best_Integer Best_Bound ItCnt Gap
0+ 0 nan nan 110.3567 0.0000 nan 100.00%
0+ 0 nan nan 96.8755 0.0000 nan 100.00%
0+ 0 nan nan 82.0823 0.0000 nan 100.00%
0 0 0.5309 26 82.0823 0.5309 120 99.35%
0+ 0 nan nan 75.6071 0.5309 nan 99.30%
0 0 4.3163 25 75.6071 Disjcuts:18 158 94.29%
0+ 0 nan nan 48.4510 4.3163 nan 91.09%
0 0 4.7451 26 48.4510 Cuts:7 177 90.21%
0+ 0 nan nan 34.5563 4.7451 nan 86.27%
0 0 4.9676 25 34.5563 Cuts:7 191 85.62%
0+ 0 nan nan 31.2811 4.9676 nan 84.12%
0 0 5.1094 25 31.2811 Disjcuts:4 201 83.67%
0 0 5.2911 25 31.2811 Cuts:6 223 83.09%
0+ 0 nan nan 17.5687 5.2911 nan 69.88%
0 0 5.2990 26 17.5687 Cuts:2 228 69.84%
0+ 0 nan nan 17.1872 5.2990 nan 69.17%
0 2 5.2990 26 17.1872 5.3091 228 69.11%
CPXPARAM_MIP_Cuts_Disjunctive-MIRCut:Disjunctive 1
CPXPARAM_MIP_Cuts_Disjunctive-MIRCut:MIRCut 14
14
Node Left Objective IInf Best_Integer Best_Bound ItCnt Gap
0+ 0 nan nan 110.3567 0.0000 nan 100.00%
0+ 0 nan nan 82.1268 0.0000 nan 100.00%
0 0 26.8968 8 82.1268 26.8968 122 67.25%
0+ 0 nan nan 70.4047 26.8968 nan 61.80%
0 0 29.9550 9 70.4047 Disjcuts:6 150 57.45%
0+ 0 nan nan 60.9769 29.9550 nan 50.87%
0 0 32.4503 9 60.9769 Cuts:7 181 46.78%
0+ 0 nan nan 59.1382 32.4503 nan 45.13%
0 0 32.8871 9 59.1382 Cuts:3 193 44.39%
0+ 0 nan nan 51.0467 32.8871 nan 35.57%
0 0 32.9342 13 51.0467 Cuts:2 205 35.48%
0 0 33.3898 10 51.0467 Cuts:6 231 34.59%
0 0 33.3898 11 51.0467 MIRcuts:2 235 34.59%
0 0 33.3898 12 51.0467 MIRcuts:1 236 34.59%
0+ 0 nan nan 47.7691 33.3898 nan 30.10%
0 2 33.3898 12 47.7691 33.7945 236 29.25%
CPXPARAM_MIP_Cuts_Disjunctive-MIRCut:Disjunctive 2
CPXPARAM_MIP_Cuts_Disjunctive-MIRCut:MIRCut 8
15
Node Left Objective IInf Best_Integer Best_Bound ItCnt Gap
0+ 0 nan nan 110.3567 0.0000 nan 100.00%
0+ 0 nan nan 93.2185 0.0000 nan 100.00%
0 0 0.2742 21 93.2185 0.2742 115 99.71%
0+ 0 nan nan 39.7563 0.2742 nan 99.31%
0 0 4.6830 16 39.7563 Disjcuts:20 163 88.22%
0+ 0 nan nan 19.2015 4.6830 nan 75.61%
0 0 4.6830 16 19.2015 Disjcuts:1 165 75.61%
0 0 4.6830 16 19.2015 Disjcuts:1 166 75.61%
0+ 0 nan nan 18.9734 4.6830 nan 75.32%
0+ 0 nan nan 12.5602 4.6830 nan 62.72%
0 2 5.6040 13 12.5602 5.6042 166 55.38%
CPXPARAM_MIP_Cuts_Disjunctive-MIRCut:Disjunctive 0
CPXPARAM_MIP_Cuts_Disjunctive-MIRCut:MIRCut 11
16
Node Left Objective IInf Best_Integer Best_Bound ItCnt Gap
0+ 0 nan nan 109.2984 0.0000 nan 100.00%
0+ 0 nan nan 99.1849 0.0000 nan 100.00%
0 0 39.0015 15 99.1849 39.0015 136 60.68%
0+ 0 nan nan 96.2736 39.0015 nan 59.49%
0 0 47.5834 15 96.2736 Disjcuts:13 162 50.57%
0+ 0 nan nan 68.6047 47.5834 nan 30.64%
0 0 47.9617 14 68.6047 Cuts:6 171 30.09%
0 0 49.3296 15 68.6047 Cuts:17 204 28.10%
0 0 50.4922 16 68.6047 Cuts:52 231 26.40%
0 0 51.5624 16 68.6047 Disjcuts:14 260 24.84%
0 0 51.5624 17 68.6047 MIRcuts:4 266 24.84%
0+ 0 nan nan 63.0801 51.5624 nan 18.26%
0 2 51.5624 16 63.0801 51.6019 266 18.20%
CPXPARAM_MIP_Cuts_Disjunctive-MIRCut:Disjunctive 2
CPXPARAM_MIP_Cuts_Disjunctive-MIRCut:MIRCut 7
17
Node Left Objective IInf Best_Integer Best_Bound ItCnt Gap
0+ 0 nan nan 109.2984 0.0000 nan 100.00%
0+ 0 nan nan 97.6971 0.0000 nan 100.00%
0+ 0 nan nan 85.4994 0.0000 nan 100.00%
0 0 0.4869 27 85.4994 0.4869 123 99.43%
0+ 0 nan nan 71.6706 0.4869 nan 99.32%
0 0 4.5638 22 71.6706 Disjcuts:24 161 93.63%
0+ 0 nan nan 32.8576 4.5638 nan 86.11%
0 0 4.7985 24 32.8576 Disjcuts:6 179 85.40%
0+ 0 nan nan 30.9954 4.7985 nan 84.52%
0 0 4.8954 25 30.9954 Cuts:6 190 84.21%
0 0 4.9473 24 30.9954 Disjcuts:3 198 84.04%
0 0 4.9881 24 30.9954 MIRcuts:3 200 83.91%
0 0 5.0129 24 30.9954 MIRcuts:2 203 83.83%
0 0 5.0224 24 30.9954 MIRcuts:1 204 83.80%
0 2 5.0224 24 30.9954 5.2973 204 82.91%
CPXPARAM_MIP_Cuts_Disjunctive-MIRCut:Disjunctive 4
CPXPARAM_MIP_Cuts_Disjunctive-MIRCut:MIRCut 11
18
Node Left Objective IInf Best_Integer Best_Bound ItCnt Gap
0+ 0 nan nan 109.2984 0.0000 nan 100.00%
0+ 0 nan nan 89.3009 0.0000 nan 100.00%
0 0 37.6534 9 89.3009 37.6534 120 57.84%
0+ 0 nan nan 78.0911 37.6534 nan 51.78%
0 0 42.6848 10 78.0911 Disjcuts:8 138 45.34%
0+ 0 nan nan 62.5895 42.6848 nan 31.80%
0 0 45.8476 11 62.5895 Cuts:9 157 26.75%
0 0 45.8628 11 62.5895 Cuts:10 163 26.72%
0 0 45.9578 11 62.5895 Cuts:6 181 26.57%
0 0 46.0857 12 62.5895 Cuts:8 205 26.37%
0 0 46.0945 13 62.5895 Cuts:6 213 26.35%
0+ 0 nan nan 60.5633 46.0945 nan 23.89%
0 0 46.1170 12 60.5633 MIRcuts:3 220 23.85%
0 0 46.7210 14 60.5633 MIRcuts:5 230 22.86%
0 0 47.0091 14 60.5633 Cuts:5 244 22.38%
0 0 47.0578 16 60.5633 MIRcuts:4 249 22.30%
0 0 47.2980 16 60.5633 MIRcuts:4 256 21.90%
0 0 47.3024 16 60.5633 Cuts:5 262 21.90%
0 0 47.3080 16 60.5633 MIRcuts:4 268 21.89%
0+ 0 nan nan 58.1071 47.3080 nan 18.58%
0 2 47.3080 16 58.1071 47.5072 268 18.24%
CPXPARAM_MIP_Cuts_Disjunctive-MIRCut:Disjunctive 10
CPXPARAM_MIP_Cuts_Disjunctive-MIRCut:MIRCut 7
19
Node Left Objective IInf Best_Integer Best_Bound ItCnt Gap
0+ 0 nan nan 109.2984 0.0000 nan 100.00%
0+ 0 nan nan 92.9814 0.0000 nan 100.00%
0 0 0.4309 20 92.9814 0.4309 108 99.54%
0+ 0 nan nan 60.8556 0.4309 nan 99.29%
0 0 3.8366 16 60.8556 Disjcuts:19 139 93.70%
0+ 0 nan nan 28.0187 3.8366 nan 86.31%
0 0 4.2588 17 28.0187 Cuts:7 163 84.80%
0+ 0 nan nan 26.8904 4.2588 nan 84.16%
0 2 4.2588 17 26.8904 4.7420 163 82.37%
CPXPARAM_MIP_Cuts_Disjunctive-MIRCut:Disjunctive 1
CPXPARAM_MIP_Cuts_Disjunctive-MIRCut:MIRCut 12
20
Node Left Objective IInf Best_Integer Best_Bound ItCnt Gap
0+ 0 nan nan 93.3792 0.0000 nan 100.00%
0+ 0 nan nan 84.6822 0.0000 nan 100.00%
0 0 9.0972 13 84.6822 9.0972 140 89.26%
0+ 0 nan nan 42.0305 9.0972 nan 78.36%
0 0 15.5852 11 42.0305 Disjcuts:12 170 62.92%
0+ 0 nan nan 41.6216 15.5852 nan 62.55%
0 0 16.5966 14 41.6216 Cuts:14 191 60.13%
0+ 0 nan nan 40.2097 16.5966 nan 58.72%
0 0 17.4925 14 40.2097 Cuts:8 210 56.50%
0 0 17.7039 14 40.2097 Cuts:5 220 55.97%
0+ 0 nan nan 34.8935 17.7039 nan 49.26%
0 0 17.7425 14 34.8935 MIRcuts:1 222 49.15%
0 0 17.7504 14 34.8935 MIRcuts:1 224 49.13%
0 0 17.7620 14 34.8935 MIRcuts:1 226 49.10%
0 0 17.7814 14 34.8935 MIRcuts:1 229 49.04%
0 2 17.7814 14 34.8935 17.9466 229 48.57%
CPXPARAM_MIP_Cuts_Disjunctive-MIRCut:Disjunctive 6
CPXPARAM_MIP_Cuts_Disjunctive-MIRCut:MIRCut 8
21
Node Left Objective IInf Best_Integer Best_Bound ItCnt Gap
0+ 0 nan nan 93.3792 0.0000 nan 100.00%
0+ 0 nan nan 84.6822 0.0000 nan 100.00%
0+ 0 nan nan 73.2863 0.0000 nan 100.00%
0 0 0.3515 25 73.2863 0.3515 121 99.52%
0+ 0 nan nan 24.0307 0.3515 nan 98.54%
0 0 1.9393 24 24.0307 Disjcuts:21 161 91.93%
0 0 2.4143 24 24.0307 Cuts:13 185 89.95%
0+ 0 nan nan 16.4288 2.4143 nan 85.30%
0 0 2.6671 25 16.4288 Cuts:7 202 83.77%
0 0 2.6882 24 16.4288 Cuts:4 213 83.64%
0+ 0 nan nan 10.8872 2.6882 nan 75.31%
0 0 2.6954 24 10.8872 Cuts:2 219 75.24%
0+ 0 nan nan 10.4613 2.6954 nan 74.23%
0+ 0 nan nan 9.4479 2.6954 nan 71.47%
0 2 3.0579 18 9.4479 3.0845 219 67.35%
CPXPARAM_MIP_Cuts_Disjunctive-MIRCut:Disjunctive 3
CPXPARAM_MIP_Cuts_Disjunctive-MIRCut:MIRCut 15
22
Node Left Objective IInf Best_Integer Best_Bound ItCnt Gap
0+ 0 nan nan 93.3792 0.0000 nan 100.00%
0+ 0 nan nan 79.5308 0.0000 nan 100.00%
0 0 9.0491 6 79.5308 9.0491 129 88.62%
0+ 0 nan nan 30.9085 9.0491 nan 70.72%
0 0 15.4687 8 30.9085 Disjcuts:4 155 49.95%
0 0 17.6527 5 30.9085 Cuts:5 172 42.89%
0+ 0 nan nan 29.0768 17.6527 nan 39.29%
0 0 18.9897 11 29.0768 Cuts:9 201 34.69%
0 0 19.0634 11 29.0768 Cuts:8 208 34.44%
0 0 20.0053 12 29.0768 Cuts:11 233 31.20%
0 0 20.1714 11 29.0768 Cuts:3 248 30.63%
0 0 20.1901 12 29.0768 MIRcuts:4 261 30.56%
0 2 20.2036 10 29.0768 20.2373 261 30.40%
CPXPARAM_MIP_Cuts_Disjunctive-MIRCut:Disjunctive 6
CPXPARAM_MIP_Cuts_Disjunctive-MIRCut:MIRCut 8
23
Node Left Objective IInf Best_Integer Best_Bound ItCnt Gap
0+ 0 nan nan 93.3792 0.0000 nan 100.00%
0+ 0 nan nan 78.2544 0.0000 nan 100.00%
0 0 0.1756 21 78.2544 0.1756 110 99.78%
0+ 0 nan nan 32.8177 0.1756 nan 99.46%
0 0 2.6695 14 32.8177 Disjcuts:20 146 91.87%
0+ 0 nan nan 4.7890 2.6695 nan 44.26%
0 0 2.7267 13 4.7890 Disjcuts:1 149 43.06%
0 2 2.9624 9 4.7890 2.9624 152 38.14%
CPXPARAM_MIP_Cuts_Disjunctive-MIRCut:Disjunctive 0
CPXPARAM_MIP_Cuts_Disjunctive-MIRCut:MIRCut 9
24
Node Left Objective IInf Best_Integer Best_Bound ItCnt Gap
0+ 0 nan nan 94.5045 0.0000 nan 100.00%
0+ 0 nan nan 83.7373 0.0000 nan 100.00%
0 0 13.3998 12 83.7373 13.3998 136 84.00%
0+ 0 nan nan 63.4898 13.3998 nan 78.89%
0 0 22.2499 12 63.4898 Disjcuts:10 163 64.96%
0 0 25.5789 13 63.4898 Cuts:17 211 59.71%
0+ 0 nan nan 59.6524 25.5789 nan 57.12%
0 0 25.5983 15 59.6524 Cuts:8 220 57.09%
0 0 25.7135 15 59.6524 Cuts:15 235 56.89%
0 0 28.6015 14 59.6524 Cuts:12 264 52.05%
0 0 28.6460 15 59.6524 MIRcuts:6 270 51.98%
0 0 28.6723 14 59.6524 MIRcuts:3 275 51.93%
0 0 28.7142 15 59.6524 MIRcuts:7 280 51.86%
0+ 0 nan nan 49.2379 28.7142 nan 41.68%
0 0 28.7784 14 49.2379 MIRcuts:4 286 41.55%
0 0 28.7828 15 49.2379 MIRcuts:3 289 41.54%
0 0 28.7840 15 49.2379 MIRcuts:1 290 41.54%
0 2 28.7840 15 49.2379 28.9065 290 41.29%
CPXPARAM_MIP_Cuts_Disjunctive-MIRCut:Disjunctive 7
CPXPARAM_MIP_Cuts_Disjunctive-MIRCut:MIRCut 5
25
Node Left Objective IInf Best_Integer Best_Bound ItCnt Gap
0+ 0 nan nan 94.5045 0.0000 nan 100.00%
0+ 0 nan nan 83.9802 0.0000 nan 100.00%
0 0 0.3418 26 83.9802 0.3418 117 99.59%
0+ 0 nan nan 41.4760 0.3418 nan 99.18%
0 0 2.2772 21 41.4760 Disjcuts:23 168 94.51%
0+ 0 nan nan 8.6930 2.2772 nan 73.80%
0 0 2.6051 21 8.6930 Cuts:6 190 70.03%
0 0 2.7767 23 8.6930 Disjcuts:10 212 68.06%
0 0 2.7819 22 8.6930 Cuts:5 221 68.00%
0 2 3.2956 15 8.6930 3.3541 221 61.42%
CPXPARAM_MIP_Cuts_Disjunctive-MIRCut:Disjunctive 0
CPXPARAM_MIP_Cuts_Disjunctive-MIRCut:MIRCut 15
26
Node Left Objective IInf Best_Integer Best_Bound ItCnt Gap
0+ 0 nan nan 94.5045 0.0000 nan 100.00%
0+ 0 nan nan 80.2086 0.0000 nan 100.00%
0 0 12.4465 6 80.2086 12.4465 132 84.48%
0+ 0 nan nan 40.0498 12.4465 nan 68.92%
0 0 21.5676 7 40.0498 Disjcuts:5 165 46.15%
0 0 25.1431 10 40.0498 Cuts:7 207 37.22%
0 0 26.1588 10 40.0498 MIRcuts:12 230 34.68%
0 0 26.2665 10 40.0498 MIRcuts:9 240 34.42%
0 0 26.2982 9 40.0498 MIRcuts:10 247 34.34%
0 0 26.4785 9 40.0498 MIRcuts:7 259 33.89%
0 0 26.5922 10 40.0498 MIRcuts:14 265 33.60%
0 0 26.7121 9 40.0498 MIRcuts:16 275 33.30%
0 0 27.2671 10 40.0498 MIRcuts:9 293 31.92%
0 0 27.4332 10 40.0498 MIRcuts:8 300 31.50%
0 0 27.8696 11 40.0498 MIRcuts:5 321 30.41%
0 0 27.9563 10 40.0498 MIRcuts:7 329 30.20%
0 0 28.1552 10 40.0498 MIRcuts:8 337 29.70%
0 0 28.7732 12 40.0498 Cuts:11 359 28.16%
0 0 29.1916 12 40.0498 MIRcuts:6 377 27.11%
0 0 29.2926 12 40.0498 MIRcuts:3 388 26.86%
0 0 29.2945 12 40.0498 MIRcuts:1 389 26.85%
0 0 29.2974 12 40.0498 MIRcuts:1 390 26.85%
0+ 0 nan nan 38.4277 29.2974 nan 23.76%
0 2 29.2974 12 38.4277 29.3762 390 23.55%
CPXPARAM_MIP_Cuts_Disjunctive-MIRCut:Disjunctive 14
CPXPARAM_MIP_Cuts_Disjunctive-MIRCut:MIRCut 5
27
Node Left Objective IInf Best_Integer Best_Bound ItCnt Gap
0+ 0 nan nan 94.5045 0.0000 nan 100.00%
0+ 0 nan nan 84.6207 0.0000 nan 100.00%
0 0 0.1609 19 84.6207 0.1609 117 99.81%
0+ 0 nan nan 40.7896 0.1609 nan 99.61%
0 0 1.9665 16 40.7896 Disjcuts:15 160 95.18%
0+ 0 nan nan 14.5697 1.9665 nan 86.50%
0+ 0 nan nan 5.9700 1.9665 nan 67.06%
0 2 2.6784 8 5.9700 2.7782 160 53.46%
CPXPARAM_MIP_Cuts_Disjunctive-MIRCut:Disjunctive 0
CPXPARAM_MIP_Cuts_Disjunctive-MIRCut:MIRCut 8
28
Node Left Objective IInf Best_Integer Best_Bound ItCnt Gap
0+ 0 nan nan 133.7092 0.0000 nan 100.00%
0+ 0 nan nan 130.8863 0.0000 nan 100.00%
0+ 0 nan nan 108.6480 0.0000 nan 100.00%
0 0 32.9611 14 108.6480 32.9611 141 69.66%
0 0 46.3660 15 108.6480 Disjcuts:13 180 57.32%
0 0 49.7701 17 108.6480 Cuts:21 208 54.19%
0+ 0 nan nan 108.0865 49.7701 nan 53.95%
0 0 50.6337 17 108.0865 Cuts:11 227 53.15%
0+ 0 nan nan 93.3445 50.6337 nan 45.76%
0 0 51.4890 17 93.3445 Cuts:10 247 44.84%
0 0 52.3831 17 93.3445 Cuts:11 256 43.88%
0 0 53.6754 15 93.3445 MIRcuts:11 279 42.50%
0 0 53.9569 17 93.3445 MIRcuts:11 292 42.20%
0 0 54.2668 17 93.3445 MIRcuts:16 309 41.86%
0 0 54.3015 17 93.3445 MIRcuts:6 315 41.83%
0 0 54.3416 17 93.3445 MIRcuts:9 324 41.78%
0+ 0 nan nan 83.8961 54.3416 nan 35.23%
0 0 54.4070 17 83.8961 MIRcuts:8 331 35.15%
0 0 54.4498 17 83.8961 MIRcuts:6 339 35.10%
0 0 54.4828 17 83.8961 MIRcuts:4 345 35.06%
0 0 54.5167 17 83.8961 MIRcuts:3 352 35.02%
0 0 54.6190 17 83.8961 MIRcuts:5 359 34.90%
0 0 54.6446 17 83.8961 MIRcuts:4 367 34.87%
0 0 54.6884 17 83.8961 MIRcuts:5 374 34.81%
0 0 54.7258 17 83.8961 MIRcuts:4 381 34.77%
0 0 54.7323 17 83.8961 MIRcuts:6 384 34.76%
0 0 54.7462 17 83.8961 MIRcuts:4 389 34.75%
0 0 54.7657 17 83.8961 MIRcuts:3 395 34.72%
0+ 0 nan nan 80.6780 54.7657 nan 32.12%
0 2 54.7657 17 80.6780 54.7694 395 32.11%
CPXPARAM_MIP_Cuts_Disjunctive-MIRCut:Disjunctive 18
CPXPARAM_MIP_Cuts_Disjunctive-MIRCut:MIRCut 4
29
Node Left Objective IInf Best_Integer Best_Bound ItCnt Gap
0+ 0 nan nan 133.7092 0.0000 nan 100.00%
0+ 0 nan nan 129.6212 0.0000 nan 100.00%
0 0 0.0000 27 129.6212 0.0000 100 100.00%
0+ 0 nan nan 76.0776 0.0000 nan 100.00%
0 0 4.2437 21 76.0776 Disjcuts:25 167 94.42%
0+ 0 nan nan 25.8641 4.2437 nan 83.59%
0 0 5.4569 22 25.8641 Disjcuts:7 180 78.90%
0+ 0 nan nan 16.8129 5.4569 nan 67.54%
0 0 6.2915 22 16.8129 Disjcuts:6 193 62.58%
0+ 0 nan nan 16.1240 6.2915 nan 60.98%
0 2 6.2915 22 16.1240 6.4017 193 60.30%
CPXPARAM_MIP_Cuts_Disjunctive-MIRCut:Disjunctive 0
CPXPARAM_MIP_Cuts_Disjunctive-MIRCut:MIRCut 14
30
Node Left Objective IInf Best_Integer Best_Bound ItCnt Gap
0+ 0 nan nan 133.7092 0.0000 nan 100.00%
0+ 0 nan nan 115.4430 0.0000 nan 100.00%
0 0 35.6764 9 115.4430 35.6764 127 69.10%
0+ 0 nan nan 93.6289 35.6764 nan 61.90%
0 0 44.0304 10 93.6289 Disjcuts:7 163 52.97%
0 0 47.4970 12 93.6289 Cuts:14 191 49.27%
0 0 49.7547 13 93.6289 Cuts:17 243 46.86%
0 0 51.0142 15 93.6289 MIRcuts:17 262 45.51%
0 0 51.8658 14 93.6289 MIRcuts:13 281 44.60%
0 0 52.4221 14 93.6289 MIRcuts:15 299 44.01%
0+ 0 nan nan 90.2642 52.4221 nan 41.92%
0 0 53.6357 14 90.2642 MIRcuts:17 334 40.58%
0+ 0 nan nan 82.0333 53.6357 nan 34.62%
0 0 54.8559 15 82.0333 Cuts:25 367 33.13%
0 0 55.3170 17 82.0333 MIRcuts:25 379 32.57%
0 0 55.5451 16 82.0333 MIRcuts:20 393 32.29%
0 0 56.3563 16 82.0333 MIRcuts:13 410 31.30%
0 0 56.5668 16 82.0333 MIRcuts:10 417 31.04%
0 0 56.6368 16 82.0333 MIRcuts:10 423 30.96%
0 0 56.7297 15 82.0333 MIRcuts:6 432 30.85%
0 0 56.7479 15 82.0333 MIRcuts:2 436 30.82%
0 0 56.7544 16 82.0333 MIRcuts:2 438 30.82%
0 0 56.8828 15 82.0333 MIRcuts:2 449 30.66%
0 0 56.9675 16 82.0333 MIRcuts:10 460 30.56%
0 0 57.0193 17 82.0333 MIRcuts:11 472 30.49%
0 0 57.0686 15 82.0333 MIRcuts:4 482 30.43%
0 0 57.0706 17 82.0333 MIRcuts:4 486 30.43%
0+ 0 nan nan 79.9741 57.0706 nan 28.64%
0+ 0 nan nan 79.2524 57.0706 nan 27.99%
0 2 57.0706 17 79.2524 57.0772 486 27.98%
CPXPARAM_MIP_Cuts_Disjunctive-MIRCut:Disjunctive 23
CPXPARAM_MIP_Cuts_Disjunctive-MIRCut:MIRCut 5
31
Node Left Objective IInf Best_Integer Best_Bound ItCnt Gap
0+ 0 nan nan 133.7092 0.0000 nan 100.00%
0+ 0 nan nan 114.7297 0.0000 nan 100.00%
0 0 0.2882 21 114.7297 0.2882 112 99.75%
0+ 0 nan nan 42.2849 0.2882 nan 99.32%
0 0 3.5545 17 42.2849 Disjcuts:17 137 91.59%
0+ 0 nan nan 20.0330 3.5545 nan 82.26%
0 0 4.8251 14 20.0330 Cuts:9 151 75.91%
0+ 0 nan nan 16.1689 4.8251 nan 70.16%
0 0 4.9627 15 16.1689 Cuts:6 163 69.31%
0+ 0 nan nan 8.0784 4.9627 nan 38.57%
0 0 5.1513 16 8.0784 Disjcuts:5 175 36.23%
0 0 5.2467 16 8.0784 Cuts:2 183 35.05%
0 0 5.2467 16 8.0784 MIRcuts:1 186 35.05%
0+ 0 nan nan 8.0784 5.2467 nan 35.05%
0 0 8.0158 2 8.0784 8.0158 229 0.77%
0 0 8.0158 2 8.0784 Disjcuts:1 233 0.77%
0 1 8.0158 3 8.0784 8.0158 236 0.77%
CPXPARAM_MIP_Cuts_Disjunctive-MIRCut:Disjunctive 0
CPXPARAM_MIP_Cuts_Disjunctive-MIRCut:MIRCut 1
32
Node Left Objective IInf Best_Integer Best_Bound ItCnt Gap
0+ 0 nan nan 110.7059 0.0000 nan 100.00%
0+ 0 nan nan 93.8685 0.0000 nan 100.00%
0+ 0 nan nan 88.1652 0.0000 nan 100.00%
0 0 26.6543 14 88.1652 26.6543 129 69.77%
0+ 0 nan nan 72.9257 26.6543 nan 63.45%
0 0 31.5259 15 72.9257 Disjcuts:13 152 56.77%
0+ 0 nan nan 61.6255 31.5259 nan 48.84%
0 0 33.0446 15 61.6255 Cuts:13 183 46.38%
0 0 33.4648 17 61.6255 Cuts:7 209 45.70%
0 0 33.7179 17 61.6255 Cuts:5 218 45.29%
0 0 34.2801 17 61.6255 Cuts:16 244 44.37%
0 0 34.3387 16 61.6255 Cuts:3 252 44.28%
0 0 34.3415 16 61.6255 MIRcuts:1 253 44.27%
0+ 0 nan nan 59.2019 34.3415 nan 41.99%
0+ 0 nan nan 54.7626 34.3415 nan 37.29%
0+ 0 nan nan 52.1642 34.3415 nan 34.17%
0 2 34.3415 16 52.1642 34.3511 253 34.15%
CPXPARAM_MIP_Cuts_Disjunctive-MIRCut:Disjunctive 2
CPXPARAM_MIP_Cuts_Disjunctive-MIRCut:MIRCut 11
33
Node Left Objective IInf Best_Integer Best_Bound ItCnt Gap
0+ 0 nan nan 110.7059 0.0000 nan 100.00%
0+ 0 nan nan 93.8685 0.0000 nan 100.00%
0+ 0 nan nan 66.0679 0.0000 nan 100.00%
0 0 0.7986 24 66.0679 0.7986 121 98.79%
0 0 4.8305 22 66.0679 Disjcuts:22 146 92.69%
0+ 0 nan nan 25.4867 4.8305 nan 81.05%
0 0 5.2494 23 25.4867 Cuts:7 154 79.40%
0 0 5.8143 22 25.4867 Cuts:14 178 77.19%
0 0 7.0633 21 25.4867 Cuts:19 223 72.29%
0+ 0 nan nan 22.6221 7.0633 nan 68.78%
0 0 7.3010 22 22.6221 Disjcuts:11 253 67.73%
0+ 0 nan nan 17.0687 7.3010 nan 57.23%
0 0 7.3010 22 17.0687 MIRcuts:5 256 57.23%
0 0 7.3010 20 17.0687 MIRcuts:1 257 57.23%
0+ 0 nan nan 11.6909 7.3010 nan 37.55%
0 2 7.8718 14 11.6909 7.9194 257 32.26%
CPXPARAM_MIP_Cuts_Disjunctive-MIRCut:Disjunctive 1
CPXPARAM_MIP_Cuts_Disjunctive-MIRCut:MIRCut 11
34
Node Left Objective IInf Best_Integer Best_Bound ItCnt Gap
0+ 0 nan nan 110.7059 0.0000 nan 100.00%
0+ 0 nan nan 76.3517 0.0000 nan 100.00%
0 0 25.6680 9 76.3517 25.6680 130 66.38%
0+ 0 nan nan 53.1922 25.6680 nan 51.74%
0 0 32.7717 9 53.1922 Disjcuts:8 157 38.39%
0 0 32.7717 8 53.1922 MIRcuts:3 162 38.39%
0 0 32.7717 9 53.1922 MIRcuts:3 164 38.39%
0+ 0 nan nan 45.1492 32.7717 nan 27.41%
0 2 32.7717 9 45.1492 34.1565 164 24.35%
CPXPARAM_MIP_Cuts_Disjunctive-MIRCut:Disjunctive 1
CPXPARAM_MIP_Cuts_Disjunctive-MIRCut:MIRCut 4
35
Node Left Objective IInf Best_Integer Best_Bound ItCnt Gap
0+ 0 nan nan 110.7059 0.0000 nan 100.00%
0+ 0 nan nan 91.5929 0.0000 nan 100.00%
0 0 0.5699 21 91.5929 0.5699 111 99.38%
0+ 0 nan nan 46.2042 0.5699 nan 98.77%
0 0 5.7155 17 46.2042 Disjcuts:19 145 87.63%
0+ 0 nan nan 21.3441 5.7155 nan 73.22%
0 0 5.9375 19 21.3441 Cuts:4 158 72.18%
0 0 5.9482 21 21.3441 MIRcuts:3 165 72.13%
0 0 5.9802 21 21.3441 MIRcuts:6 176 71.98%
0 0 6.3899 21 21.3441 Cuts:7 196 70.06%
0 0 6.6180 21 21.3441 MIRcuts:4 209 68.99%
0+ 0 nan nan 16.6108 6.6180 nan 60.16%
0 0 6.6592 21 16.6108 MIRcuts:6 212 59.91%
0 0 7.0521 22 16.6108 MIRcuts:6 220 57.55%
0+ 0 nan nan 15.5776 7.0521 nan 54.73%
0 0 7.0630 21 15.5776 MIRcuts:2 223 54.66%
0+ 0 nan nan 11.6227 7.0630 nan 39.23%
0 2 9.4547 9 11.6227 9.4593 223 18.61%
CPXPARAM_MIP_Cuts_Disjunctive-MIRCut:Disjunctive 8
CPXPARAM_MIP_Cuts_Disjunctive-MIRCut:MIRCut 10
36
Node Left Objective IInf Best_Integer Best_Bound ItCnt Gap
0+ 0 nan nan 123.7135 0.0000 nan 100.00%
0+ 0 nan nan 108.6148 0.0000 nan 100.00%
0+ 0 nan nan 101.4822 0.0000 nan 100.00%
0 0 14.9500 14 101.4822 14.9500 143 85.27%
0+ 0 nan nan 85.1671 14.9500 nan 82.45%
0 0 22.2704 14 85.1671 Disjcuts:11 172 73.85%
0+ 0 nan nan 82.2848 22.2704 nan 72.93%
0 0 25.0844 16 82.2848 Cuts:21 209 69.52%
0+ 0 nan nan 66.0027 25.0844 nan 61.99%
0 0 25.4937 15 66.0027 Cuts:8 233 61.37%
0 0 27.4861 16 66.0027 Cuts:9 262 58.36%
0+ 0 nan nan 57.1440 27.4861 nan 51.90%
0 0 29.6458 15 57.1440 Cuts:21 295 48.12%
0 0 29.8169 15 57.1440 Cuts:8 306 47.82%
0 0 29.8586 15 57.1440 MIRcuts:4 317 47.75%
0 0 29.9110 15 57.1440 MIRcuts:6 326 47.66%
0 0 29.9682 15 57.1440 MIRcuts:4 334 47.56%
0+ 0 nan nan 56.4410 29.9682 nan 46.90%
0 0 30.1638 15 56.4410 MIRcuts:8 342 46.56%
0 0 30.2857 15 56.4410 MIRcuts:3 347 46.34%
0 0 30.3624 15 56.4410 Cuts:2 355 46.21%
0 0 30.3707 15 56.4410 MIRcuts:5 360 46.19%
0 0 30.3981 15 56.4410 MIRcuts:4 364 46.14%
0 0 30.3985 15 56.4410 MIRcuts:2 365 46.14%
0 0 30.4078 15 56.4410 MIRcuts:1 367 46.12%
0+ 0 nan nan 55.6496 30.4078 nan 45.36%
0 2 30.4078 15 55.6496 30.5078 367 45.18%
CPXPARAM_MIP_Cuts_Disjunctive-MIRCut:Disjunctive 8
CPXPARAM_MIP_Cuts_Disjunctive-MIRCut:MIRCut 8
37
Node Left Objective IInf Best_Integer Best_Bound ItCnt Gap
0+ 0 nan nan 123.7135 0.0000 nan 100.00%
0+ 0 nan nan 108.8244 0.0000 nan 100.00%
0+ 0 nan nan 97.8424 0.0000 nan 100.00%
0 0 0.0000 28 97.8424 0.0000 113 100.00%
0+ 0 nan nan 83.8211 0.0000 nan 100.00%
0 0 3.4414 22 83.8211 Disjcuts:26 180 95.89%
0+ 0 nan nan 15.4571 3.4414 nan 77.74%
0 0 3.4933 23 15.4571 Disjcuts:4 191 77.40%
0+ 0 nan nan 14.7888 3.4933 nan 76.38%
0 0 3.5914 22 14.7888 Disjcuts:8 207 75.72%
0+ 0 nan nan 10.8866 3.5914 nan 67.01%
0 0 3.8281 23 10.8866 Disjcuts:5 231 64.84%
0 0 4.0962 23 10.8866 Disjcuts:5 250 62.37%
0 2 4.3569 15 10.8866 4.5206 250 58.48%
CPXPARAM_MIP_Cuts_Disjunctive-MIRCut:Disjunctive 0
CPXPARAM_MIP_Cuts_Disjunctive-MIRCut:MIRCut 17
38
Node Left Objective IInf Best_Integer Best_Bound ItCnt Gap
0+ 0 nan nan 123.7135 0.0000 nan 100.00%
0+ 0 nan nan 93.6483 0.0000 nan 100.00%
0 0 20.1701 7 93.6483 20.1701 129 78.46%
0+ 0 nan nan 48.5233 20.1701 nan 58.43%
0 0 31.8209 7 48.5233 Disjcuts:7 160 34.42%
0 0 35.0811 11 48.5233 Cuts:9 196 27.70%
0 0 37.1068 11 48.5233 Cuts:22 221 23.53%
0 0 37.4779 12 48.5233 MIRcuts:12 235 22.76%
0 0 37.7917 13 48.5233 MIRcuts:8 248 22.12%
0 0 37.9044 12 48.5233 MIRcuts:9 256 21.88%
0 0 38.0736 14 48.5233 MIRcuts:7 267 21.54%
0 0 38.1183 14 48.5233 MIRcuts:5 271 21.44%
0 0 38.1578 14 48.5233 MIRcuts:8 281 21.36%
0 0 38.2006 14 48.5233 MIRcuts:7 287 21.27%
0 0 38.2096 14 48.5233 MIRcuts:2 289 21.26%
0 0 38.2171 14 48.5233 MIRcuts:11 295 21.24%
0 0 38.2183 14 48.5233 MIRcuts:3 297 21.24%
0 0 38.3407 13 48.5233 MIRcuts:1 306 20.98%
0 0 38.3579 13 48.5233 MIRcuts:7 309 20.95%
0 0 38.3665 14 48.5233 MIRcuts:3 315 20.93%
0 0 38.3701 14 48.5233 MIRcuts:4 318 20.92%
0 2 38.3701 14 48.5233 38.4191 318 20.82%
CPXPARAM_MIP_Cuts_Disjunctive-MIRCut:Disjunctive 17
CPXPARAM_MIP_Cuts_Disjunctive-MIRCut:MIRCut 7
39
Node Left Objective IInf Best_Integer Best_Bound ItCnt Gap
0+ 0 nan nan 123.7135 0.0000 nan 100.00%
0+ 0 nan nan 89.8836 0.0000 nan 100.00%
0 0 0.2044 22 89.8836 0.2044 126 99.77%
0+ 0 nan nan 45.3370 0.2044 nan 99.55%
0 0 2.4273 15 45.3370 Disjcuts:19 170 94.65%
0+ 0 nan nan 17.8850 2.4273 nan 86.43%
0 0 2.7979 16 17.8850 Disjcuts:4 190 84.36%
0 0 3.4704 15 17.8850 Disjcuts:3 206 80.60%
0+ 0 nan nan 8.0275 3.4704 nan 56.77%
0 0 3.7275 15 8.0275 Disjcuts:2 224 53.57%
0 2 4.4402 8 8.0275 4.9401 224 38.46%
CPXPARAM_MIP_Cuts_Disjunctive-MIRCut:Disjunctive 0
CPXPARAM_MIP_Cuts_Disjunctive-MIRCut:MIRCut 10
